188 300 199 158 193 163 196 197 164 169 200 191 162 168 170 167 159 159 197 178 194 200 188 174 151 163 154 168 183 168 191 199 160 190 156 152 177 176 199 191 195 172 181 157 190 176 199 173 185 169 150 178 168 189 176 194 151 155 162 158 198 177 156 157 191 188 184 167 163 156 182 158 178 188 190 193 163 162 190 172 181 191 175 173 153 150 191 179 180 177 187 178 154 168 185 169 180 194 187 193 174 193 175 177 180 189 194 193 150 183 165 155 173 190 178 150 164 194 179 195 170 191 197 199 183 181 168 162 199 154 154 173 171 154 174 151 167 167 194 168 200 183 198 198 197 176 198 186 194 177 154 163 192 150 162 174 155 180 186 154 158 164 151 179 193 175 180 160 192 199 178 165 155 175 162 177 175 160 162 168 161 166 156 177 166 168 150 196 172 160 